# Solution for model FSG
# Objective value = 1.1808495260415948e+04
x_0_1 0
x_0_2 0
x_0_3 9.9999944163278520e-01
x_0_4 0
x_0_5 1
x_0_6 0
x_0_7 1
x_0_8 0
x_0_9 0
x_0_10 0
x_0_11 0
x_0_12 5.5732044761270816e-07
x_0_13 0
x_1_2 0
x_1_3 0
x_1_4 0
x_1_5 0
x_1_6 0
x_1_7 0
x_1_8 0
x_1_9 0
x_1_10 0
x_1_11 1
x_1_12 0
x_1_13 0
x_2_1 9.9999999816215257e-01
x_2_3 0
x_2_4 0
x_2_5 0
x_2_6 0
x_2_7 0
x_2_8 0
x_2_9 0
x_2_10 0
x_2_11 0
x_2_12 0
x_2_13 0
x_3_1 0
x_3_2 0
x_3_4 0
x_3_5 0
x_3_6 1
x_3_7 0
x_3_8 0
x_3_9 0
x_3_10 0
x_3_11 0
x_3_12 0
x_3_13 0
x_4_1 0
x_4_2 0
x_4_3 0
x_4_5 0
x_4_6 0
x_4_7 0
x_4_8 0
x_4_9 9.9999944209846614e-01
x_4_10 0
x_4_11 0
x_4_12 0
x_4_13 0
x_5_1 0
x_5_2 0
x_5_3 0
x_5_4 0
x_5_6 0
x_5_7 0
x_5_8 0
x_5_9 0
x_5_10 1
x_5_11 0
x_5_12 0
x_5_13 0
x_6_1 0
x_6_2 0
x_6_3 0
x_6_4 0
x_6_5 0
x_6_7 0
x_6_8 0
x_6_9 5.5861581953531713e-07
x_6_10 0
x_6_11 0
x_6_12 9.9999888297972073e-01
x_6_13 5.56859095227568e-07
x_7_1 0
x_7_2 0
x_7_3 0
x_7_4 0
x_7_5 0
x_7_6 0
x_7_8 9.9999999812317686e-01
x_7_9 0
x_7_10 0
x_7_11 0
x_7_12 0
x_7_13 0
x_8_1 0
x_8_2 9.9999999808990836e-01
x_8_3 0
x_8_4 0
x_8_5 0
x_8_6 0
x_8_7 0
x_8_9 0
x_8_10 0
x_8_11 0
x_8_12 0
x_8_13 0
x_9_1 0
x_9_2 0
x_9_3 0
x_9_4 0
x_9_5 0
x_9_6 0
x_9_7 0
x_9_8 0
x_9_10 0
x_9_11 0
x_9_12 5.5844783939545387e-07
x_9_13 9.9999944158324627e-01
x_10_1 0
x_10_2 0
x_10_3 0
x_10_4 1
x_10_5 0
x_10_6 0
x_10_7 0
x_10_8 0
x_10_9 0
x_10_11 0
x_10_12 0
x_10_13 0
U_1_1 0
U_1_2 0
U_1_3 0
U_1_4 1
U_2_1 0
U_2_2 0
U_2_3 0
U_2_4 1
U_3_1 0
U_3_2 0
U_3_3 0
U_3_4 1
U_4_1 0
U_4_2 0
U_4_3 0
U_4_4 1
U_5_1 0
U_5_2 0
U_5_3 1
U_5_4 0
U_6_1 0
U_6_2 0
U_6_3 0
U_6_4 1
U_7_1 0
U_7_2 0
U_7_3 1
U_7_4 0
U_8_1 0
U_8_2 0
U_8_3 0
U_8_4 1
U_9_1 0
U_9_2 0
U_9_3 0
U_9_4 1
U_10_1 0
U_10_2 0
U_10_3 0
U_10_4 1
U_11_1 0
U_11_2 0
U_11_3 0
U_11_4 1
U_12_1 0
U_12_2 0
U_12_3 0
U_12_4 1
U_13_1 0
U_13_2 0
U_13_3 0
U_13_4 1
TBar_0 0
TBar_1 1.3638599141445882e+03
TBar_2 1.2876157944572651e+03
TBar_3 1.2000000000000007e+03
TBar_4 1.2874013618805775e+03
TBar_5 9.5999999999999932e+02
TBar_6 1.2773679080000004e+03
TBar_7 9.5999999999999909e+02
TBar_8 1.2113932122908025e+03
TBar_9 1.3627029200000002e+03
TBar_10 1.2113996958805774e+03
TBar_11 1440
TBar_12 1440
TBar_13 1440
y_0_1_1 0
y_0_2_1 0
y_0_3_1 0
y_0_4_1 0
y_0_5_1 0
y_0_6_1 0
y_0_7_1 0
y_0_8_1 0
y_0_9_1 0
y_0_10_1 0
y_0_11_1 0
y_0_12_1 0
y_0_13_1 0
y_1_2_1 0
y_1_3_1 0
y_1_4_1 0
y_1_5_1 0
y_1_6_1 0
y_1_7_1 0
y_1_8_1 0
y_1_9_1 0
y_1_10_1 0
y_1_11_1 0
y_1_12_1 0
y_1_13_1 0
y_2_1_1 0
y_2_3_1 0
y_2_4_1 0
y_2_5_1 0
y_2_6_1 0
y_2_7_1 0
y_2_8_1 0
y_2_9_1 0
y_2_10_1 0
y_2_11_1 0
y_2_12_1 0
y_2_13_1 0
y_3_1_1 0
y_3_2_1 0
y_3_4_1 0
y_3_5_1 0
y_3_6_1 5.5842270850969013e-07
y_3_7_1 0
y_3_8_1 0
y_3_9_1 0
y_3_10_1 0
y_3_11_1 0
y_3_12_1 0
y_3_13_1 0
y_4_1_1 0
y_4_2_1 0
y_4_3_1 0
y_4_5_1 0
y_4_6_1 0
y_4_7_1 0
y_4_8_1 0
y_4_9_1 0
y_4_10_1 0
y_4_11_1 0
y_4_12_1 0
y_4_13_1 0
y_5_1_1 0
y_5_2_1 0
y_5_3_1 0
y_5_4_1 0
y_5_6_1 0
y_5_7_1 0
y_5_8_1 0
y_5_9_1 0
y_5_10_1 0
y_5_11_1 0
y_5_12_1 0
y_5_13_1 0
y_6_1_1 0
y_6_2_1 0
y_6_3_1 0
y_6_4_1 0
y_6_5_1 0
y_6_7_1 0
y_6_8_1 0
y_6_9_1 5.58523111033717e-07
y_6_10_1 0
y_6_11_1 0
y_6_12_1 0
y_6_13_1 0
y_7_1_1 0
y_7_2_1 0
y_7_3_1 0
y_7_4_1 0
y_7_5_1 0
y_7_6_1 0
y_7_8_1 0
y_7_9_1 0
y_7_10_1 0
y_7_11_1 0
y_7_12_1 0
y_7_13_1 0
y_8_1_1 0
y_8_2_1 0
y_8_3_1 0
y_8_4_1 0
y_8_5_1 0
y_8_6_1 0
y_8_7_1 0
y_8_9_1 0
y_8_10_1 0
y_8_11_1 0
y_8_12_1 0
y_8_13_1 0
y_9_1_1 0
y_9_2_1 0
y_9_3_1 0
y_9_4_1 0
y_9_5_1 0
y_9_6_1 0
y_9_7_1 0
y_9_8_1 0
y_9_10_1 0
y_9_11_1 0
y_9_12_1 5.58416753749102e-07
y_9_13_1 0
y_10_1_1 0
y_10_2_1 0
y_10_3_1 0
y_10_4_1 0
y_10_5_1 0
y_10_6_1 0
y_10_7_1 0
y_10_8_1 0
y_10_9_1 0
y_10_11_1 0
y_10_12_1 0
y_10_13_1 0
Q_0_1 0
Q_1_1 4.7899998128657728e+02
Q_2_1 377.199999668384
Q_3_1 1.1019993844053664e+02
Q_4_1 3.2779999999999927e+02
Q_5_1 8.6999999999999275e+01
Q_6_1 2.1039993844053373e+02
Q_7_1 1.1979999999999964e+02
Q_8_1 2.6780001877072908e+02
Q_9_1 4.6060037401509339e+02
Q_10_1 2.1919999999999925e+02
Q_11_1 4.7899998128657842e+02
Q_12_1 2.1039387164923770e+02
Q_13_1 4.6060008994973407e+02
R_11_1 0
R_12_1 0
R_13_1 0
L_1_1 0
L_2_1 0
L_3_1 0
L_4_1 0
L_5_1 24.8
L_6_1 0
L_7_1 24.8
L_8_1 0
L_9_1 0
L_10_1 0
rho_1_1 0
rho_2_1 0
rho_3_1 0
rho_4_1 0
rho_5_1 0
rho_6_1 0
rho_7_1 0
rho_8_1 0
rho_9_1 5.5171900143608342e-07
rho_10_1 0
lambd_1_1 0
lambd_2_1 0
lambd_3_1 0
lambd_4_1 0
lambd_5_1 0
lambd_6_1 0
lambd_7_1 0
lambd_8_1 0
lambd_9_1 0
lambd_10_1 0
alpha_1_1 0
alpha_2_1 0
alpha_3_1 5.5704955165550237e-07
alpha_4_1 0
alpha_5_1 0
alpha_6_1 0
alpha_7_1 0
alpha_8_1 0
alpha_9_1 0
alpha_10_1 0
